p edge 45 918
e 1 2 4
e 1 3 5
e 1 4 6
e 1 5 7
e 1 6 8
e 1 7 9
e 1 8 10
e 1 9 11
e 1 11 13
e 1 12 14
e 1 13 15
e 1 14 16
e 1 15 17
e 1 16 18
e 1 17 19
e 1 18 20
e 1 20 22
e 1 21 23
e 1 23 25
e 1 24 26
e 1 26 28
e 1 27 29
e 1 28 30
e 1 29 31
e 1 30 32
e 1 31 33
e 1 32 34
e 1 33 35
e 1 34 36
e 1 35 37
e 1 36 38
e 1 37 39
e 1 38 40
e 1 39 41
e 1 40 42
e 1 41 43
e 1 42 44
e 1 43 45
e 1 44 46
e 1 45 47
e 2 3 6
e 2 4 7
e 2 5 8
e 2 6 9
e 2 7 10
e 2 8 11
e 2 9 12
e 2 10 13
e 2 12 15
e 2 13 16
e 2 14 17
e 2 15 18
e 2 16 19
e 2 17 20
e 2 18 21
e 2 19 22
e 2 20 23
e 2 21 24
e 2 22 25
e 2 23 26
e 2 24 27
e 2 25 28
e 2 26 29
e 2 27 30
e 2 29 32
e 2 30 33
e 2 32 35
e 2 33 36
e 2 35 38
e 2 36 39
e 2 37 40
e 2 38 41
e 2 39 42
e 2 40 43
e 2 41 44
e 2 42 45
e 2 43 46
e 2 44 47
e 2 45 48
e 3 4 8
e 3 5 9
e 3 6 10
e 3 7 11
e 3 8 12
e 3 9 13
e 3 10 14
e 3 11 15
e 3 13 17
e 3 14 18
e 3 15 19
e 3 16 20
e 3 17 21
e 3 18 22
e 3 19 23
e 3 20 24
e 3 21 25
e 3 22 26
e 3 23 27
e 3 24 28
e 3 25 29
e 3 26 30
e 3 27 31
e 3 28 32
e 3 29 33
e 3 30 34
e 3 31 35
e 3 32 36
e 3 33 37
e 3 34 38
e 3 35 39
e 3 36 40
e 3 38 42
e 3 39 43
e 3 41 45
e 3 42 46
e 3 44 48
e 3 45 49
e 4 5 10
e 4 6 11
e 4 7 12
e 4 8 13
e 4 9 14
e 4 10 15
e 4 11 16
e 4 12 17
e 4 14 19
e 4 15 20
e 4 16 21
e 4 17 22
e 4 18 23
e 4 19 24
e 4 20 25
e 4 21 26
e 4 22 27
e 4 24 29
e 4 25 30
e 4 26 31
e 4 27 32
e 4 28 33
e 4 30 35
e 4 31 36
e 4 32 37
e 4 33 38
e 4 34 39
e 4 35 40
e 4 36 41
e 4 37 42
e 4 38 43
e 4 39 44
e 4 40 45
e 4 41 46
e 4 42 47
e 4 43 48
e 4 45 50
e 5 6 12
e 5 7 13
e 5 8 14
e 5 9 15
e 5 10 16
e 5 11 17
e 5 12 18
e 5 13 19
e 5 15 21
e 5 16 22
e 5 17 23
e 5 18 24
e 5 19 25
e 5 21 27
e 5 22 28
e 5 23 29
e 5 24 30
e 5 25 31
e 5 26 32
e 5 27 33
e 5 28 34
e 5 29 35
e 5 30 36
e 5 31 37
e 5 33 39
e 5 34 40
e 5 35 41
e 5 36 42
e 5 37 43
e 5 38 44
e 5 39 45
e 5 40 46
e 5 42 48
e 5 43 49
e 5 44 50
e 5 45 51
e 6 7 14
e 6 8 15
e 6 9 16
e 6 10 17
e 6 11 18
e 6 12 19
e 6 13 20
e 6 14 21
e 6 16 23
e 6 17 24
e 6 18 25
e 6 19 26
e 6 20 27
e 6 21 28
e 6 22 29
e 6 23 30
e 6 24 31
e 6 25 32
e 6 27 34
e 6 28 35
e 6 29 36
e 6 30 37
e 6 31 38
e 6 32 39
e 6 33 40
e 6 34 41
e 6 36 43
e 6 37 44
e 6 39 46
e 6 40 47
e 6 41 48
e 6 42 49
e 6 43 50
e 6 44 51
e 6 45 52
e 7 8 16
e 7 9 17
e 7 10 18
e 7 11 19
e 7 12 20
e 7 13 21
e 7 14 22
e 7 15 23
e 7 17 25
e 7 18 26
e 7 19 27
e 7 20 28
e 7 21 29
e 7 22 30
e 7 23 31
e 7 24 32
e 7 25 33
e 7 26 34
e 7 28 36
e 7 29 37
e 7 30 38
e 7 31 39
e 7 32 40
e 7 34 42
e 7 35 43
e 7 36 44
e 7 37 45
e 7 38 46
e 7 39 47
e 7 40 48
e 7 41 49
e 7 42 50
e 7 43 51
e 7 44 52
e 8 9 18
e 8 10 19
e 8 11 20
e 8 12 21
e 8 13 22
e 8 14 23
e 8 15 24
e 8 16 25
e 8 18 27
e 8 19 28
e 8 20 29
e 8 21 30
e 8 22 31
e 8 23 32
e 8 25 34
e 8 26 35
e 8 27 36
e 8 28 37
e 8 29 38
e 8 30 39
e 8 31 40
e 8 32 41
e 8 33 42
e 8 34 43
e 8 35 44
e 8 37 46
e 8 38 47
e 8 39 48
e 8 40 49
e 8 41 50
e 8 43 52
e 8 44 53
e 8 45 54
e 9 10 20
e 9 11 21
e 9 12 22
e 9 13 23
e 9 14 24
e 9 15 25
e 9 16 26
e 9 17 27
e 9 19 29
e 9 20 30
e 9 22 32
e 9 23 33
e 9 24 34
e 9 25 35
e 9 26 36
e 9 27 37
e 9 28 38
e 9 29 39
e 9 31 41
e 9 32 42
e 9 33 43
e 9 34 44
e 9 35 45
e 9 36 46
e 9 37 47
e 9 38 48
e 9 40 50
e 9 41 51
e 9 42 52
e 9 43 53
e 9 44 54
e 9 45 55
e 10 13 24
e 10 14 25
e 10 15 26
e 10 16 27
e 10 17 28
e 10 18 29
e 10 19 30
e 10 20 31
e 10 21 32
e 10 22 33
e 10 23 34
e 10 24 35
e 10 25 36
e 10 26 37
e 10 27 38
e 10 28 39
e 10 29 40
e 10 30 41
e 10 31 42
e 10 32 43
e 10 33 44
e 10 34 45
e 10 35 46
e 10 36 47
e 10 37 48
e 10 38 49
e 10 39 50
e 10 40 51
e 10 41 52
e 10 42 53
e 10 43 54
e 10 44 55
e 10 45 56
e 11 13 25
e 11 14 26
e 11 15 27
e 11 16 28
e 11 17 29
e 11 18 30
e 11 19 31
e 11 20 32
e 11 21 33
e 11 22 34
e 11 23 35
e 11 24 36
e 11 25 37
e 11 26 38
e 11 27 39
e 11 28 40
e 11 29 41
e 11 30 42
e 11 31 43
e 11 32 44
e 11 33 45
e 11 34 46
e 11 35 47
e 11 36 48
e 11 37 49
e 11 38 50
e 11 39 51
e 11 40 52
e 11 41 53
e 11 42 54
e 11 43 55
e 11 44 56
e 11 45 57
e 12 13 26
e 12 14 27
e 12 15 28
e 12 16 29
e 12 17 30
e 12 18 31
e 12 19 32
e 12 20 33
e 12 21 34
e 12 22 35
e 12 23 36
e 12 24 37
e 12 25 38
e 12 26 39
e 12 27 40
e 12 28 41
e 12 29 42
e 12 30 43
e 12 31 44
e 12 32 45
e 12 33 46
e 12 34 47
e 12 35 48
e 12 36 49
e 12 37 50
e 12 38 51
e 12 39 52
e 12 40 53
e 12 41 54
e 12 42 55
e 12 43 56
e 12 44 57
e 12 45 58
e 13 16 30
e 13 17 31
e 13 18 32
e 13 19 33
e 13 20 34
e 13 21 35
e 13 22 36
e 13 23 37
e 13 24 38
e 13 25 39
e 13 26 40
e 13 27 41
e 13 28 42
e 13 29 43
e 13 30 44
e 13 31 45
e 13 32 46
e 13 33 47
e 13 34 48
e 13 35 49
e 13 36 50
e 13 37 51
e 13 38 52
e 13 39 53
e 13 40 54
e 13 41 55
e 13 42 56
e 13 43 57
e 13 44 58
e 13 45 59
e 14 16 31
e 14 17 32
e 14 18 33
e 14 19 34
e 14 20 35
e 14 21 36
e 14 22 37
e 14 23 38
e 14 24 39
e 14 25 40
e 14 26 41
e 14 27 42
e 14 28 43
e 14 29 44
e 14 30 45
e 14 31 46
e 14 32 47
e 14 33 48
e 14 34 49
e 14 35 50
e 14 36 51
e 14 37 52
e 14 38 53
e 14 39 54
e 14 40 55
e 14 41 56
e 14 42 57
e 14 43 58
e 14 44 59
e 14 45 60
e 15 16 32
e 15 17 33
e 15 18 34
e 15 19 35
e 15 20 36
e 15 21 37
e 15 22 38
e 15 23 39
e 15 24 40
e 15 25 41
e 15 26 42
e 15 27 43
e 15 28 44
e 15 29 45
e 15 30 46
e 15 31 47
e 15 32 48
e 15 33 49
e 15 34 50
e 15 35 51
e 15 36 52
e 15 37 53
e 15 38 54
e 15 39 55
e 15 40 56
e 15 41 57
e 15 42 58
e 15 43 59
e 15 44 60
e 15 45 61
e 16 19 36
e 16 20 37
e 16 21 38
e 16 22 39
e 16 23 40
e 16 24 41
e 16 25 42
e 16 26 43
e 16 27 44
e 16 28 45
e 16 29 46
e 16 30 47
e 16 31 48
e 16 32 49
e 16 33 50
e 16 34 51
e 16 35 52
e 16 36 53
e 16 37 54
e 16 38 55
e 16 39 56
e 16 40 57
e 16 41 58
e 16 42 59
e 16 43 60
e 16 44 61
e 16 45 62
e 17 19 37
e 17 20 38
e 17 21 39
e 17 22 40
e 17 23 41
e 17 24 42
e 17 25 43
e 17 26 44
e 17 27 45
e 17 28 46
e 17 29 47
e 17 30 48
e 17 31 49
e 17 32 50
e 17 33 51
e 17 34 52
e 17 35 53
e 17 36 54
e 17 37 55
e 17 38 56
e 17 39 57
e 17 40 58
e 17 41 59
e 17 42 60
e 17 43 61
e 17 44 62
e 17 45 63
e 18 19 38
e 18 20 39
e 18 21 40
e 18 22 41
e 18 23 42
e 18 24 43
e 18 25 44
e 18 26 45
e 18 27 46
e 18 28 47
e 18 29 48
e 18 30 49
e 18 31 50
e 18 32 51
e 18 33 52
e 18 34 53
e 18 35 54
e 18 36 55
e 18 37 56
e 18 38 57
e 18 39 58
e 18 40 59
e 18 41 60
e 18 42 61
e 18 43 62
e 18 44 63
e 18 45 64
e 19 22 42
e 19 23 43
e 19 24 44
e 19 25 45
e 19 26 46
e 19 27 47
e 19 28 48
e 19 29 49
e 19 30 50
e 19 31 51
e 19 32 52
e 19 33 53
e 19 34 54
e 19 35 55
e 19 36 56
e 19 37 57
e 19 38 58
e 19 39 59
e 19 40 60
e 19 41 61
e 19 42 62
e 19 43 63
e 19 44 64
e 19 45 65
e 20 22 43
e 20 23 44
e 20 24 45
e 20 25 46
e 20 26 47
e 20 27 48
e 20 28 49
e 20 29 50
e 20 30 51
e 20 31 52
e 20 32 53
e 20 33 54
e 20 34 55
e 20 35 56
e 20 36 57
e 20 37 58
e 20 38 59
e 20 39 60
e 20 40 61
e 20 41 62
e 20 42 63
e 20 43 64
e 20 44 65
e 20 45 66
e 21 22 44
e 21 23 45
e 21 24 46
e 21 25 47
e 21 26 48
e 21 27 49
e 21 28 50
e 21 29 51
e 21 30 52
e 21 31 53
e 21 32 54
e 21 33 55
e 21 34 56
e 21 35 57
e 21 36 58
e 21 37 59
e 21 38 60
e 21 39 61
e 21 40 62
e 21 41 63
e 21 42 64
e 21 43 65
e 21 44 66
e 21 45 67
e 22 25 48
e 22 26 49
e 22 27 50
e 22 28 51
e 22 29 52
e 22 30 53
e 22 31 54
e 22 32 55
e 22 33 56
e 22 34 57
e 22 35 58
e 22 36 59
e 22 37 60
e 22 38 61
e 22 39 62
e 22 40 63
e 22 41 64
e 22 42 65
e 22 43 66
e 22 44 67
e 22 45 68
e 23 25 49
e 23 26 50
e 23 27 51
e 23 28 52
e 23 29 53
e 23 30 54
e 23 31 55
e 23 32 56
e 23 33 57
e 23 34 58
e 23 35 59
e 23 36 60
e 23 37 61
e 23 38 62
e 23 39 63
e 23 40 64
e 23 41 65
e 23 42 66
e 23 43 67
e 23 44 68
e 23 45 69
e 24 25 50
e 24 26 51
e 24 27 52
e 24 28 53
e 24 29 54
e 24 30 55
e 24 31 56
e 24 32 57
e 24 33 58
e 24 34 59
e 24 35 60
e 24 36 61
e 24 37 62
e 24 38 63
e 24 39 64
e 24 40 65
e 24 41 66
e 24 42 67
e 24 43 68
e 24 44 69
e 24 45 70
e 25 28 54
e 25 29 55
e 25 30 56
e 25 31 57
e 25 32 58
e 25 33 59
e 25 34 60
e 25 35 61
e 25 36 62
e 25 37 63
e 25 38 64
e 25 39 65
e 25 40 66
e 25 41 67
e 25 42 68
e 25 43 69
e 25 44 70
e 25 45 71
e 26 28 55
e 26 29 56
e 26 30 57
e 26 31 58
e 26 32 59
e 26 33 60
e 26 34 61
e 26 35 62
e 26 36 63
e 26 37 64
e 26 38 65
e 26 39 66
e 26 40 67
e 26 41 68
e 26 42 69
e 26 43 70
e 26 44 71
e 26 45 72
e 27 28 56
e 27 29 57
e 27 30 58
e 27 31 59
e 27 32 60
e 27 33 61
e 27 34 62
e 27 35 63
e 27 36 64
e 27 37 65
e 27 38 66
e 27 39 67
e 27 40 68
e 27 41 69
e 27 42 70
e 27 43 71
e 27 44 72
e 27 45 73
e 28 31 60
e 28 32 61
e 28 33 62
e 28 34 63
e 28 35 64
e 28 36 65
e 28 37 66
e 28 38 67
e 28 39 68
e 28 40 69
e 28 41 70
e 28 42 71
e 28 43 72
e 28 44 73
e 28 45 74
e 29 31 61
e 29 32 62
e 29 33 63
e 29 34 64
e 29 35 65
e 29 36 66
e 29 37 67
e 29 38 68
e 29 39 69
e 29 40 70
e 29 41 71
e 29 42 72
e 29 43 73
e 29 44 74
e 29 45 75
e 30 31 62
e 30 32 63
e 30 33 64
e 30 34 65
e 30 35 66
e 30 36 67
e 30 37 68
e 30 38 69
e 30 39 70
e 30 40 71
e 30 41 72
e 30 42 73
e 30 43 74
e 30 44 75
e 30 45 76
e 31 34 66
e 31 35 67
e 31 36 68
e 31 37 69
e 31 38 70
e 31 39 71
e 31 40 72
e 31 41 73
e 31 42 74
e 31 43 75
e 31 44 76
e 31 45 77
e 32 34 67
e 32 35 68
e 32 36 69
e 32 37 70
e 32 38 71
e 32 39 72
e 32 40 73
e 32 41 74
e 32 42 75
e 32 43 76
e 32 44 77
e 32 45 78
e 33 34 68
e 33 35 69
e 33 36 70
e 33 37 71
e 33 38 72
e 33 39 73
e 33 40 74
e 33 41 75
e 33 42 76
e 33 43 77
e 33 44 78
e 33 45 79
e 34 37 72
e 34 38 73
e 34 39 74
e 34 40 75
e 34 41 76
e 34 42 77
e 34 43 78
e 34 44 79
e 34 45 80
e 35 37 73
e 35 38 74
e 35 39 75
e 35 40 76
e 35 41 77
e 35 42 78
e 35 43 79
e 35 44 80
e 35 45 81
e 36 37 74
e 36 38 75
e 36 39 76
e 36 40 77
e 36 41 78
e 36 42 79
e 36 43 80
e 36 44 81
e 36 45 82
e 37 40 78
e 37 41 79
e 37 42 80
e 37 43 81
e 37 44 82
e 37 45 83
e 38 40 79
e 38 41 80
e 38 42 81
e 38 43 82
e 38 44 83
e 38 45 84
e 39 40 80
e 39 41 81
e 39 42 82
e 39 43 83
e 39 44 84
e 39 45 85
e 40 43 84
e 40 44 85
e 40 45 86
e 41 43 85
e 41 44 86
e 41 45 87
e 42 43 86
e 42 44 87
e 42 45 88
n 1 0
n 2 0
n 3 0
n 4 0
n 5 0
n 6 0
n 7 0
n 8 0
n 9 0
n 10 0
n 11 0
n 12 0
n 13 0
n 14 0
n 15 0
n 16 0
n 17 0
n 18 0
n 19 0
n 20 0
n 21 0
n 22 0
n 23 0
n 24 0
n 25 0
n 26 0
n 27 0
n 28 0
n 29 0
n 30 0
n 31 0
n 32 0
n 33 0
n 34 0
n 35 0
n 36 0
n 37 0
n 38 0
n 39 0
n 40 0
n 41 0
n 42 0
n 43 0
n 44 0
n 45 0
